Optimizer called with the following parameters:
{'focal_plane_mask': {'field_stop_radius': 14.5,
                      'grayscale': True,
                      'num_pix': 150,
                      'radius': 4.0},
 'image': {'bandwidth': 0.1,
           'contrast': 10,
           'iwa': 3.9,
           'num_wavelengths': 5,
           'owa': 14.0,
           'resolution': 2},
 'instrument': {'inst_name': 'USORT'},
 'lyot_stop': {'alignment_tolerance': 0,
               'filename': 'USORT/LS_USORT_hex_ID0000_OD0990_ovsamp16_N0128.fits',
               'num_lyot_stops': 1},
 'method': {'edge_width_for_prior': 2,
            'ending_scale': 1,
            'force_no_hermitian_symmetry': False,
            'force_no_x_mirror_symmetry': False,
            'force_no_y_mirror_symmetry': False,
            'initial_throughput_estimate': 1,
            'maximize_planet_throughput': True,
            'num_throughput_iterations': 2,
            'starting_scale': 1},
 'pupil': {'N': 128,
           'filename': 'USORT/TelAp_USORT_offaxis_ovsamp16_N0128.fits'},
 'solver': {'crossover': 0,
            'method': 2,
            'num_threads': 0}}

File organization:
{'analysis_dir': '/user/bnickson/GitHub/LUVex_TelAps/aplc_optimization/surveys/usort_offaxis_survey_N0128_telserv3/FPM40_IWA39/analysis',
 'drivers_dir': '/user/bnickson/GitHub/LUVex_TelAps/aplc_optimization/surveys/usort_offaxis_survey_N0128_telserv3/FPM40_IWA39/drivers',
 'input_files_dir': '/user/bnickson/GitHub/LUVex_TelAps/aplc_optimization/masks',
 'log_dir': '/user/bnickson/GitHub/LUVex_TelAps/aplc_optimization/surveys/usort_offaxis_survey_N0128_telserv3/FPM40_IWA39/logs',
 'solution_dir': '/user/bnickson/GitHub/LUVex_TelAps/aplc_optimization/surveys/usort_offaxis_survey_N0128_telserv3/FPM40_IWA39/solutions',
 'survey_dir': '/user/bnickson/GitHub/LUVex_TelAps/aplc_optimization/surveys/usort_offaxis_survey_N0128_telserv3/FPM40_IWA39'}

Telescope pupil:
   Mirror symmetry in x: yes
   Mirror symmetry in y: yes

Lyot stop #0:
   Mirror symmetry in x: yes
Lyot stop #0:
   Mirror symmetry in y: yes

Complete APLC:
   Mirror symmetry in x: yes
   Mirror symmetry in y: yes

Starting optimization at scale 1 with 2726 variables and 2850 constraints.
Creating model...
Set parameter Username
Academic license - for non-commercial use only - expires 2024-10-25
Set parameter Crossover to value 0
Set parameter Method to value 2
Calculating and adding constraints...
Wavelength 1/5; Variable 1000/2726
Wavelength 1/5; Variable 2000/2726
Wavelength 2/5; Variable 1000/2726
Wavelength 2/5; Variable 2000/2726
Wavelength 3/5; Variable 1000/2726
Wavelength 3/5; Variable 2000/2726
Wavelength 4/5; Variable 1000/2726
Wavelength 4/5; Variable 2000/2726
Wavelength 5/5; Variable 1000/2726
Wavelength 5/5; Variable 2000/2726
Start optimization...
Gurobi Optimizer version 10.0.3 build v10.0.3rc0 (linux64)

CPU model: Intel(R) Xeon(R) Gold 6146 CPU @ 3.20GHz, instruction set [SSE2|AVX|AVX2|AVX512]
Thread count: 24 physical cores, 48 logical processors, using up to 24 threads

Optimize a model with 5700 rows, 2726 columns and 15538200 nonzeros
Model fingerprint: 0x612c864c
Coefficient statistics:
  Matrix range     [3e-11, 5e-04]
  Objective range  [4e-03, 1e+00]
  Bounds range     [1e+00, 1e+00]
  RHS range        [1e-05, 1e-05]
Presolve time: 5.26s
Presolved: 2726 rows, 8426 columns, 15540926 nonzeros
Error: invalid user locale; possible fix is to set the system environment
       variable 'LC_ALL' to a valid locale (e.g., to 'C')
Ordering time: 0.04s

Barrier statistics:
 AA' NZ     : 3.714e+06
 Factor NZ  : 3.717e+06 (roughly 34 MB of memory)
 Factor Ops : 6.756e+09 (less than 1 second per iteration)
 Threads    : 24

                  Objective                Residual
Iter       Primal          Dual         Primal    Dual     Compl     Time
   0   5.33529092e+03  0.00000000e+00  0.00e+00 0.00e+00  9.27e-01     7s
   1   2.83272572e+03  6.62228719e+02  0.00e+00 1.70e-01  3.43e-01     7s
   2   1.91696460e+03  1.07217117e+03  0.00e+00 9.35e-02  1.52e-01     8s
   3   1.69762887e+03  1.21187244e+03  0.00e+00 5.96e-02  9.11e-02     8s
   4   1.58117711e+03  1.23365900e+03  0.00e+00 5.27e-02  7.30e-02     8s
   5   1.52458444e+03  1.26109883e+03  0.00e+00 4.40e-02  5.91e-02     9s
   6   1.51407521e+03  1.26688099e+03  0.00e+00 4.14e-02  5.56e-02     9s
   7   1.47128664e+03  1.28116828e+03  0.00e+00 3.58e-02  4.67e-02    10s
   8   1.45328528e+03  1.28915473e+03  0.00e+00 3.26e-02  4.21e-02    10s
   9   1.40512592e+03  1.29858572e+03  0.00e+00 2.76e-02  3.43e-02    10s
  10   1.36652315e+03  1.30349834e+03  0.00e+00 2.37e-02  2.83e-02    11s
  11   1.34618111e+03  1.30314555e+03  0.00e+00 2.26e-02  2.65e-02    11s
  12   1.33960110e+03  1.30156658e+03  0.00e+00 2.10e-02  2.48e-02    11s
  13   1.32956704e+03  1.30060499e+03  0.00e+00 2.03e-02  2.38e-02    12s
  14   1.30868274e+03  1.29675769e+03  0.00e+00 1.84e-02  2.13e-02    12s
  15   1.28832147e+03  1.29249660e+03  0.00e+00 1.70e-02  1.93e-02    12s
  16   1.25750864e+03  1.28452400e+03  0.00e+00 1.53e-02  1.65e-02    13s
  17   1.24787182e+03  1.27162001e+03  0.00e+00 1.28e-02  1.39e-02    13s
  18   1.23983698e+03  1.26639712e+03  0.00e+00 1.20e-02  1.30e-02    13s
  19   1.22541091e+03  1.26034037e+03  0.00e+00 1.11e-02  1.15e-02    13s
  20   1.21336441e+03  1.24749187e+03  0.00e+00 9.07e-03  9.42e-03    14s
  21   1.20307392e+03  1.24246521e+03  0.00e+00 8.42e-03  8.61e-03    14s
  22   1.19102846e+03  1.23439456e+03  0.00e+00 7.43e-03  7.37e-03    15s
  23   1.18662354e+03  1.23069793e+03  0.00e+00 7.08e-03  7.08e-03    15s
  24   1.17947262e+03  1.22723468e+03  0.00e+00 6.77e-03  6.65e-03    15s
  25   1.17368651e+03  1.21912299e+03  0.00e+00 5.94e-03  5.85e-03    16s
  26   1.16553723e+03  1.20903511e+03  0.00e+00 5.10e-03  5.03e-03    17s
  27   1.15613224e+03  1.20349207e+03  0.00e+00 4.71e-03  4.37e-03    17s
  28   1.15291490e+03  1.19850317e+03  0.00e+00 4.37e-03  4.04e-03    18s
  29   1.15135620e+03  1.19726399e+03  0.00e+00 4.29e-03  3.91e-03    19s
  30   1.14639636e+03  1.18955332e+03  0.00e+00 3.75e-03  3.36e-03    19s
  31   1.14273129e+03  1.18018835e+03  0.00e+00 3.16e-03  2.87e-03    20s
  32   1.14080576e+03  1.17562715e+03  0.00e+00 2.88e-03  2.62e-03    21s
  33   1.13911826e+03  1.17198326e+03  0.00e+00 2.66e-03  2.41e-03    21s
  34   1.13551558e+03  1.16513487e+03  0.00e+00 2.25e-03  1.97e-03    22s
  35   1.13250533e+03  1.15801415e+03  0.00e+00 1.82e-03  1.54e-03    23s
  36   1.13072218e+03  1.15306589e+03  0.00e+00 1.54e-03  1.26e-03    23s
  37   1.12973641e+03  1.14971706e+03  0.00e+00 1.35e-03  1.10e-03    24s
  38   1.12895360e+03  1.14655686e+03  0.00e+00 1.18e-03  9.56e-04    24s
  39   1.12828008e+03  1.14324294e+03  0.00e+00 9.99e-04  8.23e-04    25s
  40   1.12711024e+03  1.13849287e+03  0.00e+00 7.43e-04  6.06e-04    26s
  41   1.12684457e+03  1.13799436e+03  0.00e+00 7.16e-04  5.76e-04    26s
  42   1.12648458e+03  1.13483912e+03  0.00e+00 5.53e-04  4.73e-04    27s
  43   1.12579691e+03  1.13278961e+03  0.00e+00 4.43e-04  3.62e-04    27s
  44   1.12522825e+03  1.12947108e+03  0.00e+00 2.73e-04  2.30e-04    28s
  45   1.12473239e+03  1.12869481e+03  0.00e+00 2.32e-04  1.66e-04    29s
  46   1.12457443e+03  1.12774332e+03  0.00e+00 1.84e-04  1.31e-04    29s
  47   1.12441146e+03  1.12688711e+03  0.00e+00 1.41e-04  9.70e-05    30s
  48   1.12429523e+03  1.12592387e+03  0.00e+00 9.20e-05  6.20e-05    31s
  49   1.12420191e+03  1.12528362e+03  0.00e+00 5.99e-05  3.87e-05    31s
  50   1.12413208e+03  1.12499714e+03  0.00e+00 4.55e-05  2.57e-05    32s
  51   1.12411599e+03  1.12462307e+03  0.00e+00 2.71e-05  1.61e-05    32s
  52   1.12410516e+03  1.12448423e+03  5.79e-07 2.03e-05  1.21e-05    33s
  53   1.12408870e+03  1.12423886e+03  3.82e-07 8.23e-06  5.24e-06    33s
  54   1.12408228e+03  1.12416404e+03  6.35e-07 4.53e-06  2.97e-06    34s
  55   1.12407759e+03  1.12411035e+03  1.65e-06 1.88e-06  1.35e-06    35s
  56   1.12407408e+03  1.12409368e+03  7.89e-07 1.06e-06  6.44e-07    36s
  57   1.12407287e+03  1.12407747e+03  1.24e-07 2.49e-07  1.55e-07    37s
  58   1.12407248e+03  1.12407247e+03  1.04e-07 5.13e-10  1.97e-09    39s
  59   1.12407247e+03  1.12407247e+03  7.97e-08 4.98e-13  1.98e-12    41s

Barrier solved model in 59 iterations and 40.75 seconds (24.37 work units)
Optimal objective 1.12407247e+03

Optimization finished!
Restarting optimization for throughput iteration 1...
Gurobi Optimizer version 10.0.3 build v10.0.3rc0 (linux64)

CPU model: Intel(R) Xeon(R) Gold 6146 CPU @ 3.20GHz, instruction set [SSE2|AVX|AVX2|AVX512]
Thread count: 24 physical cores, 48 logical processors, using up to 24 threads

Optimize a model with 5700 rows, 2726 columns and 15538200 nonzeros
Model fingerprint: 0xa7fc045f
Coefficient statistics:
  Matrix range     [3e-11, 5e-04]
  Objective range  [4e-03, 1e+00]
  Bounds range     [1e+00, 1e+00]
  RHS range        [5e-06, 5e-06]
Presolve removed 0 rows and 0 columns (presolve time = 7s) ...
Presolve time: 7.71s
Presolved: 2726 rows, 8426 columns, 15540926 nonzeros
Ordering time: 0.06s

Barrier statistics:
 AA' NZ     : 3.714e+06
 Factor NZ  : 3.717e+06 (roughly 34 MB of memory)
 Factor Ops : 6.756e+09 (less than 1 second per iteration)
 Threads    : 24

                  Objective                Residual
Iter       Primal          Dual         Primal    Dual     Compl     Time
   0   5.28085119e+03  0.00000000e+00  0.00e+00 0.00e+00  9.21e-01    11s
   1   2.78282510e+03  6.55270510e+02  0.00e+00 1.71e-01  3.42e-01    11s
   2   1.86282366e+03  1.07143611e+03  0.00e+00 9.41e-02  1.52e-01    12s
   3   1.62616796e+03  1.16792009e+03  0.00e+00 6.97e-02  1.02e-01    13s
   4   1.57429026e+03  1.18848568e+03  0.00e+00 6.32e-02  9.01e-02    13s
   5   1.51003051e+03  1.22003479e+03  0.00e+00 5.37e-02  7.43e-02    14s
   6   1.43835340e+03  1.23644396e+03  0.00e+00 4.82e-02  6.48e-02    14s
   7   1.35376327e+03  1.27213505e+03  0.00e+00 3.38e-02  4.37e-02    15s
   8   1.30883602e+03  1.27130758e+03  0.00e+00 3.33e-02  4.19e-02    16s
   9   1.28838250e+03  1.26839580e+03  0.00e+00 3.22e-02  4.04e-02    16s
  10   1.24894452e+03  1.26450637e+03  0.00e+00 2.83e-02  3.58e-02    17s
  11   1.20387831e+03  1.25801982e+03  0.00e+00 2.59e-02  3.23e-02    17s
  12   1.17154963e+03  1.23155488e+03  0.00e+00 2.00e-02  2.50e-02    18s
  13   1.13951688e+03  1.22080284e+03  0.00e+00 1.86e-02  2.28e-02    18s
  14   1.11881475e+03  1.20561931e+03  0.00e+00 1.65e-02  2.03e-02    19s
  15   1.10735617e+03  1.20034266e+03  0.00e+00 1.60e-02  1.97e-02    19s
  16   1.07969213e+03  1.19043467e+03  0.00e+00 1.49e-02  1.83e-02    20s
  17   1.05821145e+03  1.17617830e+03  0.00e+00 1.36e-02  1.64e-02    21s
  18   1.03840709e+03  1.16488840e+03  0.00e+00 1.29e-02  1.52e-02    21s
  19   1.02756282e+03  1.15622180e+03  0.00e+00 1.22e-02  1.42e-02    22s
  20   1.01113585e+03  1.14310661e+03  0.00e+00 1.13e-02  1.27e-02    22s
  21   1.00435607e+03  1.13572040e+03  0.00e+00 1.08e-02  1.20e-02    23s
  22   9.95121163e+02  1.11955803e+03  0.00e+00 9.76e-03  1.06e-02    24s
  23   9.86122657e+02  1.10720529e+03  0.00e+00 8.98e-03  9.55e-03    24s
  24   9.81122281e+02  1.09453008e+03  0.00e+00 8.29e-03  8.90e-03    25s
  25   9.76646241e+02  1.08397540e+03  0.00e+00 7.68e-03  8.25e-03    26s
  26   9.71320314e+02  1.06988563e+03  0.00e+00 6.89e-03  7.45e-03    26s
  27   9.58988725e+02  1.06093905e+03  0.00e+00 6.44e-03  6.66e-03    27s
  28   9.50875499e+02  1.04810860e+03  0.00e+00 5.82e-03  6.12e-03    28s
  29   9.39206347e+02  1.03402711e+03  0.00e+00 5.25e-03  5.66e-03    28s
  30   9.33724560e+02  1.02545374e+03  0.00e+00 4.92e-03  5.34e-03    29s
  31   9.24958823e+02  1.02331507e+03  0.00e+00 4.83e-03  4.91e-03    29s
  32   9.20417365e+02  1.01135153e+03  0.00e+00 4.34e-03  4.35e-03    30s
  33   9.16318617e+02  9.99158404e+02  0.00e+00 3.86e-03  3.86e-03    30s
  34   9.09912903e+02  9.90950567e+02  0.00e+00 3.56e-03  3.32e-03    31s
  35   9.08282742e+02  9.83804255e+02  0.00e+00 3.29e-03  3.08e-03    31s
  36   9.05232919e+02  9.74931583e+02  0.00e+00 2.97e-03  2.70e-03    32s
  37   9.02585833e+02  9.66815334e+02  0.00e+00 2.67e-03  2.36e-03    32s
  38   9.01725370e+02  9.58507665e+02  0.00e+00 2.36e-03  2.12e-03    33s
  39   9.00149020e+02  9.51035439e+02  0.00e+00 2.10e-03  1.90e-03    34s
  40   8.97812524e+02  9.46165246e+02  0.00e+00 1.93e-03  1.64e-03    34s
  41   8.95749377e+02  9.36171270e+02  0.00e+00 1.58e-03  1.30e-03    35s
  42   8.94672526e+02  9.29388324e+02  0.00e+00 1.35e-03  1.09e-03    36s
  43   8.93929550e+02  9.21508714e+02  0.00e+00 1.08e-03  9.09e-04    36s
  44   8.93559043e+02  9.16677350e+02  0.00e+00 9.13e-04  7.96e-04    37s
  45   8.92906053e+02  9.14214145e+02  0.00e+00 8.31e-04  7.13e-04    37s
  46   8.92129066e+02  9.10943884e+02  0.00e+00 7.20e-04  6.00e-04    38s
  47   8.91010207e+02  9.04256990e+02  0.00e+00 4.99e-04  4.07e-04    39s
  48   8.90570854e+02  9.00448545e+02  0.00e+00 3.73e-04  3.14e-04    40s
  49   8.90296120e+02  8.99377089e+02  0.00e+00 3.38e-04  2.76e-04    41s
  50   8.90063741e+02  8.97607950e+02  0.00e+00 2.81e-04  2.33e-04    42s
  51   8.89895988e+02  8.96740859e+02  0.00e+00 2.53e-04  2.07e-04    42s
  52   8.89600724e+02  8.94694439e+02  0.00e+00 1.88e-04  1.53e-04    43s
  53   8.89237988e+02  8.92752187e+02  0.00e+00 1.25e-04  9.46e-05    44s
  54   8.89159341e+02  8.91830022e+02  0.00e+00 9.62e-05  7.51e-05    45s
  55   8.89124414e+02  8.91749806e+02  0.00e+00 9.36e-05  7.10e-05    46s
  56   8.89052781e+02  8.91418888e+02  0.00e+00 8.31e-05  6.03e-05    47s
  57   8.88989377e+02  8.90763533e+02  0.00e+00 6.24e-05  4.56e-05    47s
  58   8.88940550e+02  8.90312177e+02  0.00e+00 4.80e-05  3.48e-05    48s
  59   8.88881103e+02  8.89776604e+02  0.00e+00 3.12e-05  2.25e-05    49s
  60   8.88855061e+02  8.89486786e+02  1.50e-06 2.21e-05  1.63e-05    50s
  61   8.88835448e+02  8.89270314e+02  2.37e-06 1.53e-05  1.17e-05    51s
  62   8.88826768e+02  8.89171152e+02  2.00e-06 1.22e-05  9.64e-06    52s
  63   8.88808081e+02  8.89076500e+02  3.34e-06 9.26e-06  6.72e-06    53s
  64   8.88793559e+02  8.88925354e+02  1.00e-06 4.54e-06  3.28e-06    54s
  65   8.88785930e+02  8.88884226e+02  1.15e-06 3.25e-06  2.01e-06    55s
  66   8.88783902e+02  8.88847984e+02  7.27e-07 2.12e-06  1.31e-06    56s
  67   8.88783005e+02  8.88805117e+02  2.42e-06 7.75e-07  5.99e-07    59s
  68   8.88781572e+02  8.88795324e+02  1.18e-06 4.68e-07  3.25e-07    61s
  69   8.88781555e+02  8.88786812e+02  1.65e-06 2.01e-07  1.98e-07    63s
  70   8.88781551e+02  8.88785794e+02  1.94e-06 1.69e-07  1.82e-07    63s
  71   8.88781502e+02  8.88783019e+02  2.09e-06 8.16e-08  1.36e-07    65s
  72   8.88781450e+02  8.88781595e+02  2.85e-06 3.67e-08  1.10e-07    67s
  73   8.88780843e+02  8.88780809e+02  3.17e-06 1.19e-08  4.53e-08    69s
  74   8.88780843e+02  8.88780594e+02  3.16e-06 5.15e-09  4.12e-08    70s
  75   8.88780818e+02  8.88780433e+02  4.99e-06 8.47e-13  3.65e-08    71s
  76   8.88780732e+02  8.88780434e+02  6.17e-06 5.09e-13  3.46e-08    73s
  77   8.88780655e+02  8.88780434e+02  1.57e-05 7.15e-13  2.74e-08    74s
  78   8.88780668e+02  8.88780434e+02  1.69e-05 2.07e-12  2.74e-08    75s
  79   8.88780622e+02  8.88780433e+02  2.07e-05 4.20e-12  2.72e-08    76s
  80   8.88780581e+02  8.88780434e+02  2.91e-05 8.24e-13  3.24e-11    77s
  81   8.88781040e+02  8.88780434e+02  6.86e-05 6.48e-13  1.06e-11    77s

Barrier performed 81 iterations in 77.48 seconds (39.04 work units)
Sub-optimal termination - objective 8.88781502e+02

/user/bnickson/GitHub/LUVex_TelAps/aplc_optimization/surveys/usort_offaxis_survey_N0128_telserv3/FPM40_IWA39/drivers/09_USORT_N128_FPM400M0150_IWA0390_OWA01400_C10_BW10_Nlam5_LS_ID_ID00_ODOD09_ls_0_ovsamp16_N.py:102: DeprecationWarning: circular_aperture is deprecated. Its new name is make_circular_aperture.
  dark_zone_mask = circular_aperture(img_owa * 2)(focal_grid) - circular_aperture(img_iwa * 2)(focal_grid)
/user/bnickson/GitHub/LUVex_TelAps/aplc_optimization/surveys/usort_offaxis_survey_N0128_telserv3/FPM40_IWA39/drivers/09_USORT_N128_FPM400M0150_IWA0390_OWA01400_C10_BW10_Nlam5_LS_ID_ID00_ODOD09_ls_0_ovsamp16_N.py:110: DeprecationWarning: circular_aperture is deprecated. Its new name is make_circular_aperture.
  focal_plane_mask = 1 - evaluate_supersampled(circular_aperture(2 * fpm_radius), focal_mask_grid, 8)
/user/bnickson/GitHub/LUVex_TelAps/aplc_optimization/surveys/usort_offaxis_survey_N0128_telserv3/FPM40_IWA39/drivers/09_USORT_N128_FPM400M0150_IWA0390_OWA01400_C10_BW10_Nlam5_LS_ID_ID00_ODOD09_ls_0_ovsamp16_N.py:118: DeprecationWarning: circular_aperture is deprecated. Its new name is make_circular_aperture.
  field_stop = circular_aperture(2 * field_stop_radius)(field_stop_grid)
WARNING: VerifyWarning: Keyword name 'LS_ALIGN_TOl' is greater than 8 characters or contains characters not allowed by the FITS standard; a HIERARCH card will be created. [astropy.io.fits.card]
WARNING: VerifyWarning: Keyword name 'LS_NUM_STOPS' is greater than 8 characters or contains characters not allowed by the FITS standard; a HIERARCH card will be created. [astropy.io.fits.card]
WARNING: VerifyWarning: Keyword name 'PROG_START' is greater than 8 characters or contains characters not allowed by the FITS standard; a HIERARCH card will be created. [astropy.io.fits.card]
WARNING: VerifyWarning: Keyword name 'PROG_EDGE' is greater than 8 characters or contains characters not allowed by the FITS standard; a HIERARCH card will be created. [astropy.io.fits.card]
WARNING: VerifyWarning: Keyword name 'THRPT_ITER' is greater than 8 characters or contains characters not allowed by the FITS standard; a HIERARCH card will be created. [astropy.io.fits.card]
WARNING: VerifyWarning: Keyword name 'THRPT_ESTIM' is greater than 8 characters or contains characters not allowed by the FITS standard; a HIERARCH card will be created. [astropy.io.fits.card]
WARNING: VerifyWarning: Keyword name 'MAX_THRPT' is greater than 8 characters or contains characters not allowed by the FITS standard; a HIERARCH card will be created. [astropy.io.fits.card]
WARNING: VerifyWarning: Keyword name 'SLV_THRDS' is greater than 8 characters or contains characters not allowed by the FITS standard; a HIERARCH card will be created. [astropy.io.fits.card]
WARNING: VerifyWarning: Keyword name 'SLV_XOVER' is greater than 8 characters or contains characters not allowed by the FITS standard; a HIERARCH card will be created. [astropy.io.fits.card]
Optimization finished!
